p cnf 10 50
4 9 5 0
8 5 1 0
9 4 -3 0
-7 -6 -9 0
7 9 -8 0
-3 6 9 0
-2 6 4 0
7 -6 8 0
-8 10 1 0
1 -8 6 0
5 -9 -6 0
-3 -4 10 0
2 -5 8 0
-1 -6 9 0
2 1 -5 0
7 2 -10 0
6 -9 10 0
7 -4 -6 0
1 8 5 0
9 -3 -1 0
2 1 4 0
7 -4 3 0
-4 -9 10 0
-5 -8 -2 0
-10 1 6 0
-3 2 -8 0
7 10 3 0
10 -1 -5 0
10 5 2 0
-1 4 -9 0
-4 -10 7 0
-2 -4 6 0
-1 3 -7 0
-10 8 3 0
10 4 2 0
7 -8 -1 0
6 -10 1 0
10 2 -3 0
-6 -10 1 0
9 -10 -5 0
-4 -10 2 0
-2 -4 -1 0
-4 -2 -3 0
7 -6 5 0
6 -1 4 0
-10 -6 -1 0
2 -10 -9 0
-10 7 3 0
8 5 4 0
5 -10 -7 0
